p tw 196 38221 2 
1 3 
1 4 
1 5 
1 6 
1 7 
1 8 
1 9 
1 10 
1 11 
1 12 
1 13 
1 14 
1 15 
1 23 
1 29 
1 33 
1 43 
1 44 
1 57 
1 59 
1 71 
1 77 
1 85 
1 94 
1 99 
1 110 
1 113 
1 120 
1 127 
1 139 
1 141 
1 151 
1 155 
1 168 
1 169 
1 174 
1 183 
1 186 
2 3 
2 4 
2 5 
2 6 
2 7 
2 8 
2 9 
2 10 
2 11 
2 12 
2 13 
2 14 
2 16 
2 28 
2 30 
2 35 
2 44 
2 55 
2 58 
2 68 
2 72 
2 81 
2 85 
2 86 
2 100 
2 102 
2 114 
2 121 
2 128 
2 134 
2 142 
2 146 
2 156 
2 159 
2 170 
2 178 
2 184 
2 185 
3 4 
3 5 
3 6 
3 7 
3 8 
3 9 
3 10 
3 11 
3 12 
3 13 
3 14 
3 17 
3 18 
3 31 
3 34 
3 43 
3 45 
3 58 
3 59 
3 73 
3 83 
3 87 
3 98 
3 101 
3 109 
3 115 
3 122 
3 129 
3 135 
3 143 
3 148 
3 157 
3 161 
3 171 
3 180 
3 185 
3 187 
4 5 
4 6 
4 7 
4 8 
4 9 
4 10 
4 11 
4 12 
4 13 
4 14 
4 16 
4 18 
4 31 
4 32 
4 46 
4 50 
4 60 
4 62 
4 74 
4 80 
4 88 
4 95 
4 102 
4 105 
4 116 
4 117 
4 130 
4 140 
4 144 
4 149 
4 158 
4 166 
4 169 
4 172 
4 186 
4 195 
5 6 
5 7 
5 8 
5 9 
5 10 
5 11 
5 12 
5 13 
5 14 
5 19 
5 22 
5 33 
5 37 
5 47 
5 56 
5 61 
5 63 
5 71 
5 75 
5 87 
5 89 
5 100 
5 103 
5 117 
5 123 
5 131 
5 138 
5 144 
5 145 
5 159 
5 164 
5 173 
5 181 
5 187 
5 188 
6 7 
6 8 
6 9 
6 10 
6 11 
6 12 
6 13 
6 14 
6 20 
6 21 
6 34 
6 42 
6 48 
6 54 
6 62 
6 67 
6 76 
6 79 
6 90 
6 97 
6 104 
6 108 
6 116 
6 118 
6 127 
6 132 
6 145 
6 146 
6 160 
6 162 
6 171 
6 174 
6 184 
6 188 
7 8 
7 9 
7 10 
7 11 
7 12 
7 13 
7 14 
7 21 
7 27 
7 30 
7 35 
7 45 
7 49 
7 63 
7 65 
7 76 
7 77 
7 88 
7 91 
7 105 
7 106 
7 119 
7 124 
7 133 
7 137 
7 147 
7 150 
7 155 
7 161 
7 173 
7 175 
7 189 
7 196 
8 9 
8 10 
8 11 
8 12 
8 13 
8 14 
8 20 
8 22 
8 32 
8 36 
8 47 
8 50 
8 64 
8 66 
8 73 
8 78 
8 86 
8 92 
8 99 
8 106 
8 120 
8 125 
8 133 
8 134 
8 148 
8 152 
8 162 
8 163 
8 176 
8 182 
8 190 
8 193 
9 10 
9 11 
9 12 
9 13 
9 14 
9 23 
9 25 
9 37 
9 41 
9 48 
9 51 
9 57 
9 65 
9 79 
9 84 
9 91 
9 93 
9 103 
9 107 
9 115 
9 121 
9 135 
9 136 
9 142 
9 149 
9 158 
9 163 
9 176 
9 177 
9 191 
9 194 
10 11 
10 12 
10 13 
10 14 
10 17 
10 24 
10 29 
10 38 
10 46 
10 52 
10 61 
10 66 
10 80 
10 82 
10 93 
10 94 
10 108 
10 112 
10 119 
10 122 
10 128 
10 136 
10 150 
10 153 
10 160 
10 164 
10 178 
10 179 
10 190 
10 192 
11 12 
11 13 
11 14 
11 24 
11 25 
11 36 
11 39 
11 49 
11 53 
11 60 
11 67 
11 75 
11 81 
11 95 
11 96 
11 101 
11 109 
11 114 
11 123 
11 132 
11 137 
11 151 
11 154 
11 165 
11 167 
11 177 
11 179 
11 183 
11 193 
12 13 
12 14 
12 19 
12 26 
12 38 
12 40 
12 51 
12 54 
12 64 
12 68 
12 72 
12 82 
12 90 
12 96 
12 110 
12 111 
12 124 
12 126 
12 129 
12 138 
12 141 
12 152 
12 165 
12 166 
12 172 
12 180 
12 189 
12 194 
13 14 
13 26 
13 27 
13 39 
13 41 
13 52 
13 55 
13 69 
13 70 
13 78 
13 83 
13 89 
13 97 
13 104 
13 111 
13 113 
13 125 
13 130 
13 139 
13 143 
13 153 
13 156 
13 167 
13 175 
13 181 
13 191 
13 195 
14 15 
14 28 
14 40 
14 42 
14 53 
14 56 
14 69 
14 70 
14 74 
14 84 
14 92 
14 98 
14 107 
14 112 
14 118 
14 126 
14 131 
14 140 
14 147 
14 154 
14 157 
14 168 
14 170 
14 182 
14 192 
14 196 
15 16 
15 17 
15 18 
15 19 
15 20 
15 21 
15 22 
15 23 
15 24 
15 25 
15 26 
15 27 
15 28 
15 29 
15 40 
15 43 
15 53 
15 57 
15 69 
15 71 
15 74 
15 85 
15 92 
15 99 
15 107 
15 113 
15 118 
15 127 
15 131 
15 141 
15 147 
15 155 
15 157 
15 169 
15 170 
15 183 
15 192 
16 17 
16 18 
16 19 
16 20 
16 21 
16 22 
16 23 
16 24 
16 25 
16 26 
16 27 
16 28 
16 30 
16 31 
16 44 
16 50 
16 58 
16 62 
16 72 
16 80 
16 86 
16 95 
16 100 
16 105 
16 114 
16 117 
16 128 
16 140 
16 142 
16 149 
16 156 
16 166 
16 169 
16 170 
16 184 
16 195 
17 18 
17 19 
17 20 
17 21 
17 22 
17 23 
17 24 
17 25 
17 26 
17 27 
17 28 
17 29 
17 31 
17 45 
17 46 
17 59 
17 61 
17 73 
17 82 
17 87 
17 93 
17 101 
17 112 
17 115 
17 119 
17 128 
17 129 
17 143 
17 153 
17 157 
17 160 
17 171 
17 179 
17 185 
17 190 
18 19 
18 20 
18 21 
18 22 
18 23 
18 24 
18 25 
18 26 
18 27 
18 28 
18 32 
18 34 
18 43 
18 46 
18 58 
18 60 
18 74 
18 83 
18 88 
18 98 
18 102 
18 109 
18 116 
18 122 
18 130 
18 135 
18 144 
18 148 
18 158 
18 161 
18 172 
18 180 
18 186 
18 187 
19 20 
19 21 
19 22 
19 23 
19 24 
19 25 
19 26 
19 27 
19 28 
19 33 
19 38 
19 47 
19 51 
19 61 
19 64 
19 72 
19 75 
19 89 
19 90 
19 103 
19 111 
19 117 
19 126 
19 129 
19 131 
19 141 
19 145 
19 159 
19 165 
19 172 
19 173 
19 187 
19 189 
20 21 
20 22 
20 23 
20 24 
20 25 
20 26 
20 27 
20 28 
20 32 
20 34 
20 47 
20 48 
20 62 
20 66 
20 73 
20 76 
20 86 
20 90 
20 99 
20 104 
20 118 
20 125 
20 132 
20 133 
20 146 
20 152 
20 160 
20 163 
20 174 
20 182 
20 188 
20 193 
21 22 
21 23 
21 24 
21 25 
21 26 
21 27 
21 28 
21 35 
21 42 
21 49 
21 54 
21 63 
21 67 
21 77 
21 79 
21 91 
21 97 
21 105 
21 108 
21 116 
21 119 
21 127 
21 133 
21 145 
21 147 
21 161 
21 162 
21 171 
21 175 
21 184 
21 189 
22 23 
22 24 
22 25 
22 26 
22 27 
22 28 
22 36 
22 37 
22 50 
22 56 
22 63 
22 64 
22 71 
22 78 
22 87 
22 92 
22 100 
22 106 
22 120 
22 123 
22 134 
22 138 
22 144 
22 148 
22 162 
22 164 
22 176 
22 181 
22 188 
22 190 
23 24 
23 25 
23 26 
23 27 
23 28 
23 33 
23 37 
23 44 
23 51 
23 59 
23 65 
23 77 
23 79 
23 93 
23 94 
23 107 
23 110 
23 120 
23 121 
23 135 
23 139 
23 149 
23 151 
23 163 
23 168 
23 174 
23 177 
23 186 
23 191 
24 25 
24 26 
24 27 
24 28 
24 36 
24 38 
24 49 
24 52 
24 60 
24 66 
24 75 
24 80 
24 94 
24 96 
24 101 
24 108 
24 114 
24 122 
24 132 
24 136 
24 150 
24 154 
24 164 
24 167 
24 177 
24 178 
24 183 
24 192 
25 26 
25 27 
25 28 
25 39 
25 41 
25 48 
25 53 
25 57 
25 67 
25 81 
25 84 
25 91 
25 95 
25 103 
25 109 
25 115 
25 123 
25 136 
25 137 
25 142 
25 151 
25 158 
25 165 
25 176 
25 179 
25 193 
25 194 
26 27 
26 28 
26 39 
26 40 
26 52 
26 54 
26 68 
26 70 
26 78 
26 82 
26 89 
26 96 
26 104 
26 110 
26 113 
26 124 
26 130 
26 138 
26 143 
26 152 
26 156 
26 166 
26 175 
26 180 
26 191 
26 194 
27 28 
27 30 
27 41 
27 45 
27 55 
27 65 
27 69 
27 76 
27 83 
27 88 
27 97 
27 106 
27 111 
27 124 
27 125 
27 137 
27 139 
27 150 
27 153 
27 155 
27 167 
27 173 
27 181 
27 195 
27 196 
28 35 
28 42 
28 55 
28 56 
28 68 
28 70 
28 81 
28 84 
28 85 
28 98 
28 102 
28 112 
28 121 
28 126 
28 134 
28 140 
28 146 
28 154 
28 159 
28 168 
28 178 
28 182 
28 185 
28 196 
29 30 
29 31 
29 32 
29 33 
29 34 
29 35 
29 36 
29 37 
29 38 
29 39 
29 40 
29 41 
29 42 
29 43 
29 46 
29 57 
29 61 
29 71 
29 82 
29 85 
29 93 
29 99 
29 112 
29 113 
29 119 
29 127 
29 128 
29 141 
29 153 
29 155 
29 160 
29 169 
29 179 
29 183 
29 190 
30 31 
30 32 
30 33 
30 34 
30 35 
30 36 
30 37 
30 38 
30 39 
30 40 
30 41 
30 42 
30 44 
30 45 
30 58 
30 65 
30 72 
30 76 
30 86 
30 88 
30 100 
30 106 
30 114 
30 124 
30 128 
30 137 
30 142 
30 150 
30 155 
30 156 
30 170 
30 173 
30 184 
30 196 
31 32 
31 33 
31 34 
31 35 
31 36 
31 37 
31 38 
31 39 
31 40 
31 41 
31 42 
31 45 
31 50 
31 59 
31 62 
31 73 
31 80 
31 87 
31 95 
31 101 
31 105 
31 115 
31 117 
31 129 
31 140 
31 143 
31 149 
31 157 
31 166 
31 169 
31 171 
31 185 
31 195 
32 33 
32 34 
32 35 
32 36 
32 37 
32 38 
32 39 
32 40 
32 41 
32 42 
32 46 
32 47 
32 60 
32 66 
32 73 
32 74 
32 86 
32 88 
32 99 
32 102 
32 116 
32 125 
32 130 
32 133 
32 144 
32 152 
32 158 
32 163 
32 172 
32 182 
32 186 
32 193 
33 34 
33 35 
33 36 
33 37 
33 38 
33 39 
33 40 
33 41 
33 42 
33 44 
33 47 
33 59 
33 61 
33 75 
33 77 
33 89 
33 94 
33 103 
33 110 
33 117 
33 120 
33 131 
33 139 
33 145 
33 151 
33 159 
33 168 
33 173 
33 174 
33 186 
33 187 
34 35 
34 36 
34 37 
34 38 
34 39 
34 40 
34 41 
34 42 
34 43 
34 48 
34 58 
34 62 
34 76 
34 83 
34 90 
34 98 
34 104 
34 109 
34 118 
34 122 
34 132 
34 135 
34 146 
34 148 
34 160 
34 161 
34 174 
34 180 
34 187 
34 188 
35 36 
35 37 
35 38 
35 39 
35 40 
35 41 
35 42 
35 49 
35 55 
35 63 
35 68 
35 77 
35 81 
35 85 
35 91 
35 102 
35 105 
35 119 
35 121 
35 133 
35 134 
35 146 
35 147 
35 159 
35 161 
35 175 
35 178 
35 185 
35 189 
36 37 
36 38 
36 39 
36 40 
36 41 
36 42 
36 49 
36 50 
36 60 
36 64 
36 75 
36 78 
36 92 
36 96 
36 101 
36 106 
36 114 
36 120 
36 132 
36 134 
36 148 
36 154 
36 162 
36 167 
36 176 
36 177 
36 183 
36 190 
37 38 
37 39 
37 40 
37 41 
37 42 
37 51 
37 56 
37 63 
37 65 
37 71 
37 79 
37 87 
37 93 
37 100 
37 107 
37 121 
37 123 
37 135 
37 138 
37 144 
37 149 
37 163 
37 164 
37 177 
37 181 
37 188 
37 191 
38 39 
38 40 
38 41 
38 42 
38 51 
38 52 
38 64 
38 66 
38 72 
38 80 
38 90 
38 94 
38 108 
38 111 
38 122 
38 126 
38 129 
38 136 
38 141 
38 150 
38 164 
38 165 
38 172 
38 178 
38 189 
38 192 
39 40 
39 41 
39 42 
39 52 
39 53 
39 67 
39 70 
39 78 
39 81 
39 89 
39 95 
39 104 
39 109 
39 113 
39 123 
39 130 
39 137 
39 143 
39 151 
39 156 
39 165 
39 175 
39 179 
39 191 
39 193 
40 41 
40 42 
40 53 
40 54 
40 68 
40 69 
40 74 
40 82 
40 92 
40 96 
40 107 
40 110 
40 118 
40 124 
40 131 
40 138 
40 147 
40 152 
40 157 
40 166 
40 170 
40 180 
40 192 
40 194 
41 42 
41 48 
41 55 
41 57 
41 69 
41 83 
41 84 
41 91 
41 97 
41 103 
41 111 
41 115 
41 125 
41 136 
41 139 
41 142 
41 153 
41 158 
41 167 
41 176 
41 181 
41 194 
41 195 
42 54 
42 56 
42 67 
42 70 
42 79 
42 84 
42 97 
42 98 
42 108 
42 112 
42 116 
42 126 
42 127 
42 140 
42 145 
42 154 
42 162 
42 168 
42 171 
42 182 
42 184 
42 196 
43 44 
43 45 
43 46 
43 47 
43 48 
43 49 
43 50 
43 51 
43 52 
43 53 
43 54 
43 55 
43 56 
43 57 
43 58 
43 71 
43 83 
43 85 
43 98 
43 99 
43 109 
43 113 
43 122 
43 127 
43 135 
43 141 
43 148 
43 155 
43 161 
43 169 
43 180 
43 183 
43 187 
44 45 
44 46 
44 47 
44 48 
44 49 
44 50 
44 51 
44 52 
44 53 
44 54 
44 55 
44 56 
44 58 
44 59 
44 72 
44 77 
44 86 
44 94 
44 100 
44 110 
44 114 
44 120 
44 128 
44 139 
44 142 
44 151 
44 156 
44 168 
44 170 
44 174 
44 184 
44 186 
45 46 
45 47 
45 48 
45 49 
45 50 
45 51 
45 52 
45 53 
45 54 
45 55 
45 56 
45 59 
45 65 
45 73 
45 76 
45 87 
45 88 
45 101 
45 106 
45 115 
45 124 
45 129 
45 137 
45 143 
45 150 
45 155 
45 157 
45 171 
45 173 
45 185 
45 196 
46 47 
46 48 
46 49 
46 50 
46 51 
46 52 
46 53 
46 54 
46 55 
46 56 
46 60 
46 61 
46 74 
46 82 
46 88 
46 93 
46 102 
46 112 
46 116 
46 119 
46 128 
46 130 
46 144 
46 153 
46 158 
46 160 
46 172 
46 179 
46 186 
46 190 
47 48 
47 49 
47 50 
47 51 
47 52 
47 53 
47 54 
47 55 
47 56 
47 61 
47 66 
47 73 
47 75 
47 86 
47 89 
47 99 
47 103 
47 117 
47 125 
47 131 
47 133 
47 145 
47 152 
47 159 
47 163 
47 173 
47 182 
47 187 
47 193 
48 49 
48 50 
48 51 
48 52 
48 53 
48 54 
48 55 
48 56 
48 57 
48 62 
48 76 
48 84 
48 90 
48 91 
48 103 
48 104 
48 115 
48 118 
48 132 
48 136 
48 142 
48 146 
48 158 
48 160 
48 174 
48 176 
48 188 
48 194 
49 50 
49 51 
49 52 
49 53 
49 54 
49 55 
49 56 
49 60 
49 63 
49 75 
49 77 
49 91 
49 96 
49 101 
49 105 
49 114 
49 119 
49 132 
49 133 
49 147 
49 154 
49 161 
49 167 
49 175 
49 177 
49 183 
49 189 
50 51 
50 52 
50 53 
50 54 
50 55 
50 56 
50 62 
50 64 
50 78 
50 80 
50 92 
50 95 
50 105 
50 106 
50 117 
50 120 
50 134 
50 140 
50 148 
50 149 
50 162 
50 166 
50 169 
50 176 
50 190 
50 195 
51 52 
51 53 
51 54 
51 55 
51 56 
51 64 
51 65 
51 72 
51 79 
51 90 
51 93 
51 107 
51 111 
51 121 
51 126 
51 129 
51 135 
51 141 
51 149 
51 163 
51 165 
51 172 
51 177 
51 189 
51 191 
52 53 
52 54 
52 55 
52 56 
52 66 
52 70 
52 78 
52 80 
52 89 
52 94 
52 104 
52 108 
52 113 
52 122 
52 130 
52 136 
52 143 
52 150 
52 156 
52 164 
52 175 
52 178 
52 191 
52 192 
53 54 
53 55 
53 56 
53 67 
53 69 
53 74 
53 81 
53 92 
53 95 
53 107 
53 109 
53 118 
53 123 
53 131 
53 137 
53 147 
53 151 
53 157 
53 165 
53 170 
53 179 
53 192 
53 193 
54 55 
54 56 
54 67 
54 68 
54 79 
54 82 
54 96 
54 97 
54 108 
54 110 
54 116 
54 124 
54 127 
54 138 
54 145 
54 152 
54 162 
54 166 
54 171 
54 180 
54 184 
54 194 
55 56 
55 68 
55 69 
55 81 
55 83 
55 85 
55 97 
55 102 
55 111 
55 121 
55 125 
55 134 
55 139 
55 146 
55 153 
55 159 
55 167 
55 178 
55 181 
55 185 
55 195 
56 63 
56 70 
56 71 
56 84 
56 87 
56 98 
56 100 
56 112 
56 123 
56 126 
56 138 
56 140 
56 144 
56 154 
56 164 
56 168 
56 181 
56 182 
56 188 
56 196 
57 58 
57 59 
57 60 
57 61 
57 62 
57 63 
57 64 
57 65 
57 66 
57 67 
57 68 
57 69 
57 70 
57 71 
57 84 
57 85 
57 91 
57 99 
57 103 
57 113 
57 115 
57 127 
57 136 
57 141 
57 142 
57 155 
57 158 
57 169 
57 176 
57 183 
57 194 
58 59 
58 60 
58 61 
58 62 
58 63 
58 64 
58 65 
58 66 
58 67 
58 68 
58 69 
58 70 
58 72 
58 83 
58 86 
58 98 
58 100 
58 109 
58 114 
58 122 
58 128 
58 135 
58 142 
58 148 
58 156 
58 161 
58 170 
58 180 
58 184 
58 187 
59 60 
59 61 
59 62 
59 63 
59 64 
59 65 
59 66 
59 67 
59 68 
59 69 
59 70 
59 73 
59 77 
59 87 
59 94 
59 101 
59 110 
59 115 
59 120 
59 129 
59 139 
59 143 
59 151 
59 157 
59 168 
59 171 
59 174 
59 185 
59 186 
60 61 
60 62 
60 63 
60 64 
60 65 
60 66 
60 67 
60 68 
60 69 
60 70 
60 74 
60 75 
60 88 
60 96 
60 101 
60 102 
60 114 
60 116 
60 130 
60 132 
60 144 
60 154 
60 158 
60 167 
60 172 
60 177 
60 183 
60 186 
61 62 
61 63 
61 64 
61 65 
61 66 
61 67 
61 68 
61 69 
61 70 
61 75 
61 82 
61 89 
61 93 
61 103 
61 112 
61 117 
61 119 
61 128 
61 131 
61 145 
61 153 
61 159 
61 160 
61 173 
61 179 
61 187 
61 190 
62 63 
62 64 
62 65 
62 66 
62 67 
62 68 
62 69 
62 70 
62 76 
62 80 
62 90 
62 95 
62 104 
62 105 
62 117 
62 118 
62 132 
62 140 
62 146 
62 149 
62 160 
62 166 
62 169 
62 174 
62 188 
62 195 
63 64 
63 65 
63 66 
63 67 
63 68 
63 69 
63 70 
63 71 
63 77 
63 87 
63 91 
63 100 
63 105 
63 119 
63 123 
63 133 
63 138 
63 144 
63 147 
63 161 
63 164 
63 175 
63 181 
63 188 
63 189 
64 65 
64 66 
64 67 
64 68 
64 69 
64 70 
64 72 
64 78 
64 90 
64 92 
64 106 
64 111 
64 120 
64 126 
64 129 
64 134 
64 141 
64 148 
64 162 
64 165 
64 172 
64 176 
64 189 
64 190 
65 66 
65 67 
65 68 
65 69 
65 70 
65 76 
65 79 
65 88 
65 93 
65 106 
65 107 
65 121 
65 124 
65 135 
65 137 
65 149 
65 150 
65 155 
65 163 
65 173 
65 177 
65 191 
65 196 
66 67 
66 68 
66 69 
66 70 
66 73 
66 80 
66 86 
66 94 
66 99 
66 108 
66 122 
66 125 
66 133 
66 136 
66 150 
66 152 
66 163 
66 164 
66 178 
66 182 
66 192 
66 193 
67 68 
67 69 
67 70 
67 79 
67 81 
67 95 
67 97 
67 108 
67 109 
67 116 
67 123 
67 127 
67 137 
67 145 
67 151 
67 162 
67 165 
67 171 
67 179 
67 184 
67 193 
68 69 
68 70 
68 81 
68 82 
68 85 
68 96 
68 102 
68 110 
68 121 
68 124 
68 134 
68 138 
68 146 
68 152 
68 159 
68 166 
68 178 
68 180 
68 185 
68 194 
69 70 
69 74 
69 83 
69 92 
69 97 
69 107 
69 111 
69 118 
69 125 
69 131 
69 139 
69 147 
69 153 
69 157 
69 167 
69 170 
69 181 
69 192 
69 195 
70 78 
70 84 
70 89 
70 98 
70 104 
70 112 
70 113 
70 126 
70 130 
70 140 
70 143 
70 154 
70 156 
70 168 
70 175 
70 182 
70 191 
70 196 
71 72 
71 73 
71 74 
71 75 
71 76 
71 77 
71 78 
71 79 
71 80 
71 81 
71 82 
71 83 
71 84 
71 85 
71 87 
71 99 
71 100 
71 113 
71 123 
71 127 
71 138 
71 141 
71 144 
71 155 
71 164 
71 169 
71 181 
71 183 
71 188 
72 73 
72 74 
72 75 
72 76 
72 77 
72 78 
72 79 
72 80 
72 81 
72 82 
72 83 
72 84 
72 86 
72 90 
72 100 
72 111 
72 114 
72 126 
72 128 
72 129 
72 141 
72 142 
72 156 
72 165 
72 170 
72 172 
72 184 
72 189 
73 74 
73 75 
73 76 
73 77 
73 78 
73 79 
73 80 
73 81 
73 82 
73 83 
73 84 
73 86 
73 87 
73 99 
73 101 
73 115 
73 125 
73 129 
73 133 
73 143 
73 152 
73 157 
73 163 
73 171 
73 182 
73 185 
73 193 
74 75 
74 76 
74 77 
74 78 
74 79 
74 80 
74 81 
74 82 
74 83 
74 84 
74 88 
74 92 
74 102 
74 107 
74 116 
74 118 
74 130 
74 131 
74 144 
74 147 
74 157 
74 158 
74 170 
74 172 
74 186 
74 192 
75 76 
75 77 
75 78 
75 79 
75 80 
75 81 
75 82 
75 83 
75 84 
75 89 
75 96 
75 101 
75 103 
75 114 
75 117 
75 131 
75 132 
75 145 
75 154 
75 159 
75 167 
75 173 
75 177 
75 183 
75 187 
76 77 
76 78 
76 79 
76 80 
76 81 
76 82 
76 83 
76 84 
76 88 
76 90 
76 104 
76 106 
76 118 
76 124 
76 132 
76 137 
76 146 
76 150 
76 155 
76 160 
76 173 
76 174 
76 188 
76 196 
77 78 
77 79 
77 80 
77 81 
77 82 
77 83 
77 84 
77 91 
77 94 
77 105 
77 110 
77 119 
77 120 
77 133 
77 139 
77 147 
77 151 
77 161 
77 168 
77 174 
77 175 
77 186 
77 189 
78 79 
78 80 
78 81 
78 82 
78 83 
78 84 
78 89 
78 92 
78 104 
78 106 
78 113 
78 120 
78 130 
78 134 
78 143 
78 148 
78 156 
78 162 
78 175 
78 176 
78 190 
78 191 
79 80 
79 81 
79 82 
79 83 
79 84 
79 93 
79 97 
79 107 
79 108 
79 116 
79 121 
79 127 
79 135 
79 145 
79 149 
79 162 
79 163 
79 171 
79 177 
79 184 
79 191 
80 81 
80 82 
80 83 
80 84 
80 94 
80 95 
80 105 
80 108 
80 117 
80 122 
80 136 
80 140 
80 149 
80 150 
80 164 
80 166 
80 169 
80 178 
80 192 
80 195 
81 82 
81 83 
81 84 
81 85 
81 95 
81 102 
81 109 
81 121 
81 123 
81 134 
81 137 
81 146 
81 151 
81 159 
81 165 
81 178 
81 179 
81 185 
81 193 
82 83 
82 84 
82 93 
82 96 
82 110 
82 112 
82 119 
82 124 
82 128 
82 138 
82 152 
82 153 
82 160 
82 166 
82 179 
82 180 
82 190 
82 194 
83 84 
83 97 
83 98 
83 109 
83 111 
83 122 
83 125 
83 135 
83 139 
83 148 
83 153 
83 161 
83 167 
83 180 
83 181 
83 187 
83 195 
84 91 
84 98 
84 103 
84 112 
84 115 
84 126 
84 136 
84 140 
84 142 
84 154 
84 158 
84 168 
84 176 
84 182 
84 194 
84 196 
85 86 
85 87 
85 88 
85 89 
85 90 
85 91 
85 92 
85 93 
85 94 
85 95 
85 96 
85 97 
85 98 
85 99 
85 102 
85 113 
85 121 
85 127 
85 134 
85 141 
85 146 
85 155 
85 159 
85 169 
85 178 
85 183 
85 185 
86 87 
86 88 
86 89 
86 90 
86 91 
86 92 
86 93 
86 94 
86 95 
86 96 
86 97 
86 98 
86 99 
86 100 
86 114 
86 125 
86 128 
86 133 
86 142 
86 152 
86 156 
86 163 
86 170 
86 182 
86 184 
86 193 
87 88 
87 89 
87 90 
87 91 
87 92 
87 93 
87 94 
87 95 
87 96 
87 97 
87 98 
87 100 
87 101 
87 115 
87 123 
87 129 
87 138 
87 143 
87 144 
87 157 
87 164 
87 171 
87 181 
87 185 
87 188 
88 89 
88 90 
88 91 
88 92 
88 93 
88 94 
88 95 
88 96 
88 97 
88 98 
88 102 
88 106 
88 116 
88 124 
88 130 
88 137 
88 144 
88 150 
88 155 
88 158 
88 172 
88 173 
88 186 
88 196 
89 90 
89 91 
89 92 
89 93 
89 94 
89 95 
89 96 
89 97 
89 98 
89 103 
89 104 
89 113 
89 117 
89 130 
89 131 
89 143 
89 145 
89 156 
89 159 
89 173 
89 175 
89 187 
89 191 
90 91 
90 92 
90 93 
90 94 
90 95 
90 96 
90 97 
90 98 
90 104 
90 111 
90 118 
90 126 
90 129 
90 132 
90 141 
90 146 
90 160 
90 165 
90 172 
90 174 
90 188 
90 189 
91 92 
91 93 
91 94 
91 95 
91 96 
91 97 
91 98 
91 103 
91 105 
91 115 
91 119 
91 133 
91 136 
91 142 
91 147 
91 158 
91 161 
91 175 
91 176 
91 189 
91 194 
92 93 
92 94 
92 95 
92 96 
92 97 
92 98 
92 106 
92 107 
92 118 
92 120 
92 131 
92 134 
92 147 
92 148 
92 157 
92 162 
92 170 
92 176 
92 190 
92 192 
93 94 
93 95 
93 96 
93 97 
93 98 
93 107 
93 112 
93 119 
93 121 
93 128 
93 135 
93 149 
93 153 
93 160 
93 163 
93 177 
93 179 
93 190 
93 191 
94 95 
94 96 
94 97 
94 98 
94 108 
94 110 
94 120 
94 122 
94 136 
94 139 
94 150 
94 151 
94 164 
94 168 
94 174 
94 178 
94 186 
94 192 
95 96 
95 97 
95 98 
95 105 
95 109 
95 117 
95 123 
95 137 
95 140 
95 149 
95 151 
95 165 
95 166 
95 169 
95 179 
95 193 
95 195 
96 97 
96 98 
96 101 
96 110 
96 114 
96 124 
96 132 
96 138 
96 152 
96 154 
96 166 
96 167 
96 177 
96 180 
96 183 
96 194 
97 98 
97 108 
97 111 
97 116 
97 125 
97 127 
97 139 
97 145 
97 153 
97 162 
97 167 
97 171 
97 181 
97 184 
97 195 
98 109 
98 112 
98 122 
98 126 
98 135 
98 140 
98 148 
98 154 
98 161 
98 168 
98 180 
98 182 
98 187 
98 196 
99 100 
99 101 
99 102 
99 103 
99 104 
99 105 
99 106 
99 107 
99 108 
99 109 
99 110 
99 111 
99 112 
99 113 
99 125 
99 127 
99 133 
99 141 
99 152 
99 155 
99 163 
99 169 
99 182 
99 183 
99 193 
100 101 
100 102 
100 103 
100 104 
100 105 
100 106 
100 107 
100 108 
100 109 
100 110 
100 111 
100 112 
100 114 
100 123 
100 128 
100 138 
100 142 
100 144 
100 156 
100 164 
100 170 
100 181 
100 184 
100 188 
101 102 
101 103 
101 104 
101 105 
101 106 
101 107 
101 108 
101 109 
101 110 
101 111 
101 112 
101 114 
101 115 
101 129 
101 132 
101 143 
101 154 
101 157 
101 167 
101 171 
101 177 
101 183 
101 185 
102 103 
102 104 
102 105 
102 106 
102 107 
102 108 
102 109 
102 110 
102 111 
102 112 
102 116 
102 121 
102 130 
102 134 
102 144 
102 146 
102 158 
102 159 
102 172 
102 178 
102 185 
102 186 
103 104 
103 105 
103 106 
103 107 
103 108 
103 109 
103 110 
103 111 
103 112 
103 115 
103 117 
103 131 
103 136 
103 142 
103 145 
103 158 
103 159 
103 173 
103 176 
103 187 
103 194 
104 105 
104 106 
104 107 
104 108 
104 109 
104 110 
104 111 
104 112 
104 113 
104 118 
104 130 
104 132 
104 143 
104 146 
104 156 
104 160 
104 174 
104 175 
104 188 
104 191 
105 106 
105 107 
105 108 
105 109 
105 110 
105 111 
105 112 
105 117 
105 119 
105 133 
105 140 
105 147 
105 149 
105 161 
105 166 
105 169 
105 175 
105 189 
105 195 
106 107 
106 108 
106 109 
106 110 
106 111 
106 112 
106 120 
106 124 
106 134 
106 137 
106 148 
106 150 
106 155 
106 162 
106 173 
106 176 
106 190 
106 196 
107 108 
107 109 
107 110 
107 111 
107 112 
107 118 
107 121 
107 131 
107 135 
107 147 
107 149 
107 157 
107 163 
107 170 
107 177 
107 191 
107 192 
108 109 
108 110 
108 111 
108 112 
108 116 
108 122 
108 127 
108 136 
108 145 
108 150 
108 162 
108 164 
108 171 
108 178 
108 184 
108 192 
109 110 
109 111 
109 112 
109 122 
109 123 
109 135 
109 137 
109 148 
109 151 
109 161 
109 165 
109 179 
109 180 
109 187 
109 193 
110 111 
110 112 
110 120 
110 124 
110 138 
110 139 
110 151 
110 152 
110 166 
110 168 
110 174 
110 180 
110 186 
110 194 
111 112 
111 125 
111 126 
111 129 
111 139 
111 141 
111 153 
111 165 
111 167 
111 172 
111 181 
111 189 
111 195 
112 119 
112 126 
112 128 
112 140 
112 153 
112 154 
112 160 
112 168 
112 179 
112 182 
112 190 
112 196 
113 114 
113 115 
113 116 
113 117 
113 118 
113 119 
113 120 
113 121 
113 122 
113 123 
113 124 
113 125 
113 126 
113 127 
113 130 
113 141 
113 143 
113 155 
113 156 
113 169 
113 175 
113 183 
113 191 
114 115 
114 116 
114 117 
114 118 
114 119 
114 120 
114 121 
114 122 
114 123 
114 124 
114 125 
114 126 
114 128 
114 132 
114 142 
114 154 
114 156 
114 167 
114 170 
114 177 
114 183 
114 184 
115 116 
115 117 
115 118 
115 119 
115 120 
115 121 
115 122 
115 123 
115 124 
115 125 
115 126 
115 129 
115 136 
115 142 
115 143 
115 157 
115 158 
115 171 
115 176 
115 185 
115 194 
116 117 
116 118 
116 119 
116 120 
116 121 
116 122 
116 123 
116 124 
116 125 
116 126 
116 127 
116 130 
116 144 
116 145 
116 158 
116 162 
116 171 
116 172 
116 184 
116 186 
117 118 
117 119 
117 120 
117 121 
117 122 
117 123 
117 124 
117 125 
117 126 
117 131 
117 140 
117 145 
117 149 
117 159 
117 166 
117 169 
117 173 
117 187 
117 195 
118 119 
118 120 
118 121 
118 122 
118 123 
118 124 
118 125 
118 126 
118 131 
118 132 
118 146 
118 147 
118 157 
118 160 
118 170 
118 174 
118 188 
118 192 
119 120 
119 121 
119 122 
119 123 
119 124 
119 125 
119 126 
119 128 
119 133 
119 147 
119 153 
119 160 
119 161 
119 175 
119 179 
119 189 
119 190 
120 121 
120 122 
120 123 
120 124 
120 125 
120 126 
120 134 
120 139 
120 148 
120 151 
120 162 
120 168 
120 174 
120 176 
120 186 
120 190 
121 122 
121 123 
121 124 
121 125 
121 126 
121 134 
121 135 
121 146 
121 149 
121 159 
121 163 
121 177 
121 178 
121 185 
121 191 
122 123 
122 124 
122 125 
122 126 
122 135 
122 136 
122 148 
122 150 
122 161 
122 164 
122 178 
122 180 
122 187 
122 192 
123 124 
123 125 
123 126 
123 137 
123 138 
123 144 
123 151 
123 164 
123 165 
123 179 
123 181 
123 188 
123 193 
124 125 
124 126 
124 137 
124 138 
124 150 
124 152 
124 155 
124 166 
124 173 
124 180 
124 194 
124 196 
125 126 
125 133 
125 139 
125 152 
125 153 
125 163 
125 167 
125 181 
125 182 
125 193 
125 195 
126 129 
126 140 
126 141 
126 154 
126 165 
126 168 
126 172 
126 182 
126 189 
126 196 
127 128 
127 129 
127 130 
127 131 
127 132 
127 133 
127 134 
127 135 
127 136 
127 137 
127 138 
127 139 
127 140 
127 141 
127 145 
127 155 
127 162 
127 169 
127 171 
127 183 
127 184 
128 129 
128 130 
128 131 
128 132 
128 133 
128 134 
128 135 
128 136 
128 137 
128 138 
128 139 
128 140 
128 142 
128 153 
128 156 
128 160 
128 170 
128 179 
128 184 
128 190 
129 130 
129 131 
129 132 
129 133 
129 134 
129 135 
129 136 
129 137 
129 138 
129 139 
129 140 
129 141 
129 143 
129 157 
129 165 
129 171 
129 172 
129 185 
129 189 
130 131 
130 132 
130 133 
130 134 
130 135 
130 136 
130 137 
130 138 
130 139 
130 140 
130 143 
130 144 
130 156 
130 158 
130 172 
130 175 
130 186 
130 191 
131 132 
131 133 
131 134 
131 135 
131 136 
131 137 
131 138 
131 139 
131 140 
131 145 
131 147 
131 157 
131 159 
131 170 
131 173 
131 187 
131 192 
132 133 
132 134 
132 135 
132 136 
132 137 
132 138 
132 139 
132 140 
132 146 
132 154 
132 160 
132 167 
132 174 
132 177 
132 183 
132 188 
133 134 
133 135 
133 136 
133 137 
133 138 
133 139 
133 140 
133 147 
133 152 
133 161 
133 163 
133 175 
133 182 
133 189 
133 193 
134 135 
134 136 
134 137 
134 138 
134 139 
134 140 
134 146 
134 148 
134 159 
134 162 
134 176 
134 178 
134 185 
134 190 
135 136 
135 137 
135 138 
135 139 
135 140 
135 148 
135 149 
135 161 
135 163 
135 177 
135 180 
135 187 
135 191 
136 137 
136 138 
136 139 
136 140 
136 142 
136 150 
136 158 
136 164 
136 176 
136 178 
136 192 
136 194 
137 138 
137 139 
137 140 
137 150 
137 151 
137 155 
137 165 
137 173 
137 179 
137 193 
137 196 
138 139 
138 140 
138 144 
138 152 
138 164 
138 166 
138 180 
138 181 
138 188 
138 194 
139 140 
139 151 
139 153 
139 167 
139 168 
139 174 
139 181 
139 186 
139 195 
140 149 
140 154 
140 166 
140 168 
140 169 
140 182 
140 195 
140 196 
141 142 
141 143 
141 144 
141 145 
141 146 
141 147 
141 148 
141 149 
141 150 
141 151 
141 152 
141 153 
141 154 
141 155 
141 165 
141 169 
141 172 
141 183 
141 189 
142 143 
142 144 
142 145 
142 146 
142 147 
142 148 
142 149 
142 150 
142 151 
142 152 
142 153 
142 154 
142 156 
142 158 
142 170 
142 176 
142 184 
142 194 
143 144 
143 145 
143 146 
143 147 
143 148 
143 149 
143 150 
143 151 
143 152 
143 153 
143 154 
143 156 
143 157 
143 171 
143 175 
143 185 
143 191 
144 145 
144 146 
144 147 
144 148 
144 149 
144 150 
144 151 
144 152 
144 153 
144 154 
144 158 
144 164 
144 172 
144 181 
144 186 
144 188 
145 146 
145 147 
145 148 
145 149 
145 150 
145 151 
145 152 
145 153 
145 154 
145 159 
145 162 
145 171 
145 173 
145 184 
145 187 
146 147 
146 148 
146 149 
146 150 
146 151 
146 152 
146 153 
146 154 
146 159 
146 160 
146 174 
146 178 
146 185 
146 188 
147 148 
147 149 
147 150 
147 151 
147 152 
147 153 
147 154 
147 157 
147 161 
147 170 
147 175 
147 189 
147 192 
148 149 
148 150 
148 151 
148 152 
148 153 
148 154 
148 161 
148 162 
148 176 
148 180 
148 187 
148 190 
149 150 
149 151 
149 152 
149 153 
149 154 
149 163 
149 166 
149 169 
149 177 
149 191 
149 195 
150 151 
150 152 
150 153 
150 154 
150 155 
150 164 
150 173 
150 178 
150 192 
150 196 
151 152 
151 153 
151 154 
151 165 
151 168 
151 174 
151 179 
151 186 
151 193 
152 153 
152 154 
152 163 
152 166 
152 180 
152 182 
152 193 
152 194 
153 154 
153 160 
153 167 
153 179 
153 181 
153 190 
153 195 
154 167 
154 168 
154 177 
154 182 
154 183 
154 196 
155 156 
155 157 
155 158 
155 159 
155 160 
155 161 
155 162 
155 163 
155 164 
155 165 
155 166 
155 167 
155 168 
155 169 
155 173 
155 183 
155 196 
156 157 
156 158 
156 159 
156 160 
156 161 
156 162 
156 163 
156 164 
156 165 
156 166 
156 167 
156 168 
156 170 
156 175 
156 184 
156 191 
157 158 
157 159 
157 160 
157 161 
157 162 
157 163 
157 164 
157 165 
157 166 
157 167 
157 168 
157 170 
157 171 
157 185 
157 192 
158 159 
158 160 
158 161 
158 162 
158 163 
158 164 
158 165 
158 166 
158 167 
158 168 
158 172 
158 176 
158 186 
158 194 
159 160 
159 161 
159 162 
159 163 
159 164 
159 165 
159 166 
159 167 
159 168 
159 173 
159 178 
159 185 
159 187 
160 161 
160 162 
160 163 
160 164 
160 165 
160 166 
160 167 
160 168 
160 174 
160 179 
160 188 
160 190 
161 162 
161 163 
161 164 
161 165 
161 166 
161 167 
161 168 
161 175 
161 180 
161 187 
161 189 
162 163 
162 164 
162 165 
162 166 
162 167 
162 168 
162 171 
162 176 
162 184 
162 190 
163 164 
163 165 
163 166 
163 167 
163 168 
163 177 
163 182 
163 191 
163 193 
164 165 
164 166 
164 167 
164 168 
164 178 
164 181 
164 188 
164 192 
165 166 
165 167 
165 168 
165 172 
165 179 
165 189 
165 193 
166 167 
166 168 
166 169 
166 180 
166 194 
166 195 
167 168 
167 177 
167 181 
167 183 
167 195 
168 174 
168 182 
168 186 
168 196 
169 170 
169 171 
169 172 
169 173 
169 174 
169 175 
169 176 
169 177 
169 178 
169 179 
169 180 
169 181 
169 182 
169 183 
169 195 
170 171 
170 172 
170 173 
170 174 
170 175 
170 176 
170 177 
170 178 
170 179 
170 180 
170 181 
170 182 
170 184 
170 192 
171 172 
171 173 
171 174 
171 175 
171 176 
171 177 
171 178 
171 179 
171 180 
171 181 
171 182 
171 184 
171 185 
172 173 
172 174 
172 175 
172 176 
172 177 
172 178 
172 179 
172 180 
172 181 
172 182 
172 186 
172 189 
173 174 
173 175 
173 176 
173 177 
173 178 
173 179 
173 180 
173 181 
173 182 
173 187 
173 196 
174 175 
174 176 
174 177 
174 178 
174 179 
174 180 
174 181 
174 182 
174 186 
174 188 
175 176 
175 177 
175 178 
175 179 
175 180 
175 181 
175 182 
175 189 
175 191 
176 177 
176 178 
176 179 
176 180 
176 181 
176 182 
176 190 
176 194 
177 178 
177 179 
177 180 
177 181 
177 182 
177 183 
177 191 
178 179 
178 180 
178 181 
178 182 
178 185 
178 192 
179 180 
179 181 
179 182 
179 190 
179 193 
180 181 
180 182 
180 187 
180 194 
181 182 
181 188 
181 195 
182 193 
182 196 
183 184 
183 185 
183 186 
183 187 
183 188 
183 189 
183 190 
183 191 
183 192 
183 193 
183 194 
183 195 
183 196 
184 185 
184 186 
184 187 
184 188 
184 189 
184 190 
184 191 
184 192 
184 193 
184 194 
184 195 
184 196 
185 186 
185 187 
185 188 
185 189 
185 190 
185 191 
185 192 
185 193 
185 194 
185 195 
185 196 
186 187 
186 188 
186 189 
186 190 
186 191 
186 192 
186 193 
186 194 
186 195 
186 196 
187 188 
187 189 
187 190 
187 191 
187 192 
187 193 
187 194 
187 195 
187 196 
188 189 
188 190 
188 191 
188 192 
188 193 
188 194 
188 195 
188 196 
189 190 
189 191 
189 192 
189 193 
189 194 
189 195 
189 196 
190 191 
190 192 
190 193 
190 194 
190 195 
190 196 
191 192 
191 193 
191 194 
191 195 
191 196 
192 193 
192 194 
192 195 
192 196 
193 194 
193 195 
193 196 
194 195 
194 196 
195 196 
